sat
(:added-eqs               14
 :arith-branch            130
 :arith-conflicts         11
 :arith-cube-calls        32
 :arith-cube-success      1
 :arith-dio-calls         130
 :arith-fixed-eqs         15
 :arith-gcd-calls         131
 :arith-lower             99
 :arith-make-feasible     171
 :arith-max-columns       212
 :arith-max-rows          84
 :arith-patches           131
 :arith-upper             226
 :conflicts               11
 :decisions               141
 :final-checks            131
 :max-memory              60.95
 :memory                  21.27
 :mk-bool-var             327
 :mk-clause               12
 :num-allocs              6212802169.00
 :num-checks              2
 :propagations            3
 :rlimit-count            20762537
 :sat-backjumps           60305
 :sat-backtracks          137
 :sat-conflicts           60442
 :sat-decisions           202535
 :sat-del-clause          15301
 :sat-elim-bool-vars-res  2817
 :sat-elim-clauses        935
 :sat-elim-literals       525
 :sat-minimized-lits      804582
 :sat-mk-clause-2ary      37473
 :sat-mk-clause-3ary      9943
 :sat-mk-clause-nary      150842
 :sat-mk-var              34436
 :sat-probing-assigned    217
 :sat-propagations-2ary   10696815
 :sat-propagations-nary   9440210
 :sat-restarts            8462
 :sat-scc-elim-binary     2
 :sat-scc-elim-vars       1
 :sat-subs-resolution     72
 :sat-subs-resolution-dyn 20568
 :sat-subsumed            103
 :sat-units               238
 :time                    7.08
 :total-time              7.05)
